4 
5  40 
6  03 18 33 43 51 58 
7  06 13 21 28 36 43 51 58 
8  06 13 21 28 36 43 51 58 
9  06 13 21 28 36 51 
10  06 21 36 51 
11  06 21 36 51 
12  06 21 36 51 
13  06 20 35 50 
14  05 20 35 50 
15  05 20 28 35 43 50 58 
16  05 13 20 28 35 43 50 58 
17  05 13 20 28 35 43 50 58 
18  05 12 20 27 35 42 50 57 
19  05 21 36 51 
20  06 21 38 53 
21  08 23 38 53 
22  08 23 38 53 
23  08 25 
0 
